experiments/benchmarks/random/9_6_5.in
24 11
1 9 3 0 0 5 0 -5 7 0 -4
1 0 0 0 0 6 0 0 0 0 -1
1 0 0 0 0 0 -2 0 0 0 -1
1 0 2 -5 2 10 0 -2 0 0 -1
1 -7 4 4 0 0 0 0 -5 0 7
1 -1 5 0 -5 0 0 0 0 -10 2
1 1 0 0 0 0 0 0 0 0 8
1 0 1 0 0 0 0 0 0 0 8
1 0 0 1 0 0 0 0 0 0 8
1 0 0 0 1 0 0 0 0 0 8
1 0 0 0 0 1 0 0 0 0 8
1 0 0 0 0 0 1 0 0 0 8
1 0 0 0 0 0 0 1 0 0 8
1 0 0 0 0 0 0 0 1 0 8
1 0 0 0 0 0 0 0 0 1 8
1 -1 0 0 0 0 0 0 0 0 7
1 0 -1 0 0 0 0 0 0 0 7
1 0 0 -1 0 0 0 0 0 0 7
1 0 0 0 -1 0 0 0 0 0 7
1 0 0 0 0 -1 0 0 0 0 7
1 0 0 0 0 0 -1 0 0 0 7
1 0 0 0 0 0 0 -1 0 0 7
1 0 0 0 0 0 0 0 -1 0 7
1 0 0 0 0 0 0 0 0 -1 7
